[VALIDATOR STDOUT]
Checking plan: /home/fjl2401/Safety-gen/benchmark_problems/spanner/optic_results/spanner-s6-n5-l9-s6002.plan
Plan executed successfully - checking goal
Goal not satisfied
Plan invalid


Failed plans:
 /home/fjl2401/Safety-gen/benchmark_problems/spanner/optic_results/spanner-s6-n5-l9-s6002.plan
